(declare-sort Loc 0)
(declare-const l0 Loc)
(declare-const l1 Loc)
(declare-const l2 Loc)
(declare-const l3 Loc)
(declare-const l4 Loc)
(declare-const l5 Loc)
(declare-const l6 Loc)
(declare-const l7 Loc)
(declare-const l8 Loc)
(declare-const l9 Loc)
(declare-const l10 Loc)
(declare-const l11 Loc)
(declare-const l12 Loc)
(declare-const l13 Loc)
(declare-const l14 Loc)
(declare-const l15 Loc)
(declare-const l16 Loc)
(declare-const l17 Loc)
(declare-const l18 Loc)
(declare-const l19 Loc)
(declare-const l20 Loc)
(declare-const l21 Loc)
(declare-const l22 Loc)
(declare-const l23 Loc)
(declare-const l24 Loc)
(declare-const l25 Loc)
(declare-const l26 Loc)
(declare-const l27 Loc)
(declare-const l28 Loc)
(declare-const l29 Loc)
(declare-const l30 Loc)
(assert (distinct l0 l1 l2 l3 l4 l5 l6 l7 l8 l9 l10 l11 l12 l13 l14 l15 l16 l17 l18 l19 l20 l21 l22 l23 l24 l25 l26 l27 l28 l29 l30))

(define-fun cfg_init ( (pc Loc) (src Loc) (rel Bool) ) Bool
  (and (= pc src) rel))

(define-fun cfg_trans2 ( (pc Loc) (src Loc)
                         (pc1 Loc) (dst Loc)
                         (rel Bool) ) Bool
  (and (= pc src) (= pc1 dst) rel))

(define-fun cfg_trans3 ( (pc Loc) (exit Loc)
                         (pc1 Loc) (call Loc)
                         (pc2 Loc) (return Loc)
                         (rel Bool) ) Bool
  (and (= pc exit) (= pc1 call) (= pc2 return) rel))

(define-fun init_main ( (pc^0 Loc) (N^0 Int) (br^0 Int) (bs^0 Int) (c1^0 Int) (c2^0 Int) (fr^0 Int) (fs^0 Int) (i^0 Int) (lr^0 Int) (ls^0 Int) (next^0 Int) (pos^0 Int) (r_ab^0 Int) (recv^0 Int) (rrep^0 Int) (s_ab^0 Int) (z^0 Int) ) Bool
  (cfg_init pc^0 l30 true))

(define-fun next_main (
                 (pc^0 Loc) (N^0 Int) (br^0 Int) (bs^0 Int) (c1^0 Int) (c2^0 Int) (fr^0 Int) (fs^0 Int) (i^0 Int) (lr^0 Int) (ls^0 Int) (next^0 Int) (pos^0 Int) (r_ab^0 Int) (recv^0 Int) (rrep^0 Int) (s_ab^0 Int) (z^0 Int)
                 (pc^post Loc) (N^post Int) (br^post Int) (bs^post Int) (c1^post Int) (c2^post Int) (fr^post Int) (fs^post Int) (i^post Int) (lr^post Int) (ls^post Int) (next^post Int) (pos^post Int) (r_ab^post Int) (recv^post Int) (rrep^post Int) (s_ab^post Int) (z^post Int)
             ) Bool
  (or
    (cfg_trans2 pc^0 l0 pc^post l1 (and (and (and (and (and (and (and (and (and (and (and (and (and (and (and (and (= N^0 N^post) (= br^0 br^post)) (= bs^0 bs^post)) (= c1^0 c1^post)) (= c2^0 c2^post)) (= fr^0 fr^post)) (= fs^0 fs^post)) (= i^0 i^post)) (= lr^0 lr^post)) (= ls^0 ls^post)) (= next^0 next^post)) (= pos^0 pos^post)) (= r_ab^0 r_ab^post)) (= recv^0 recv^post)) (= rrep^0 rrep^post)) (= s_ab^0 s_ab^post)) (= z^0 z^post)))
    (cfg_trans2 pc^0 l2 pc^post l3 (and (and (and (and (and (and (and (and (and (and (and (and (and (and (and (and (and (<= (+ 1 next^0) (+ 1 N^0)) (= N^0 N^post)) (= br^0 br^post)) (= bs^0 bs^post)) (= c1^0 c1^post)) (= c2^0 c2^post)) (= fr^0 fr^post)) (= fs^0 fs^post)) (= i^0 i^post)) (= lr^0 lr^post)) (= ls^0 ls^post)) (= next^0 next^post)) (= pos^0 pos^post)) (= r_ab^0 r_ab^post)) (= recv^0 recv^post)) (= rrep^0 rrep^post)) (= s_ab^0 s_ab^post)) (= z^0 z^post)))
    (cfg_trans2 pc^0 l4 pc^post l0 (and (and (and (and (and (and (and (and (and (and (and (and (and (and (and (and (and (= i^post (+ 1 i^0)) (<= (+ 1 next^0) (+ 1 N^0))) (= N^0 N^post)) (= br^0 br^post)) (= bs^0 bs^post)) (= c1^0 c1^post)) (= c2^0 c2^post)) (= fr^0 fr^post)) (= fs^0 fs^post)) (= lr^0 lr^post)) (= ls^0 ls^post)) (= next^0 next^post)) (= pos^0 pos^post)) (= r_ab^0 r_ab^post)) (= recv^0 recv^post)) (= rrep^0 rrep^post)) (= s_ab^0 s_ab^post)) (= z^0 z^post)))
    (cfg_trans2 pc^0 l5 pc^post l4 (and (and (and (and (and (and (and (and (and (and (and (and (and (and (and (and (and (<= (+ 1 s_ab^0) 1) (= s_ab^post 1)) (= N^0 N^post)) (= br^0 br^post)) (= bs^0 bs^post)) (= c1^0 c1^post)) (= c2^0 c2^post)) (= fr^0 fr^post)) (= fs^0 fs^post)) (= i^0 i^post)) (= lr^0 lr^post)) (= ls^0 ls^post)) (= next^0 next^post)) (= pos^0 pos^post)) (= r_ab^0 r_ab^post)) (= recv^0 recv^post)) (= rrep^0 rrep^post)) (= z^0 z^post)))
    (cfg_trans2 pc^0 l5 pc^post l4 (and (and (and (and (and (and (and (and (and (and (and (and (and (and (and (and (and (<= 1 (+ 0 s_ab^0)) (= s_ab^post 0)) (= N^0 N^post)) (= br^0 br^post)) (= bs^0 bs^post)) (= c1^0 c1^post)) (= c2^0 c2^post)) (= fr^0 fr^post)) (= fs^0 fs^post)) (= i^0 i^post)) (= lr^0 lr^post)) (= ls^0 ls^post)) (= next^0 next^post)) (= pos^0 pos^post)) (= r_ab^0 r_ab^post)) (= recv^0 recv^post)) (= rrep^0 rrep^post)) (= z^0 z^post)))
    (cfg_trans2 pc^0 l6 pc^post l7 (and (and (and (and (and (and (and (and (and (and (and (and (and (and (and (and (and (and (<= 2 (+ 0 pos^0)) (= next^post (+ 1 next^0))) (<= 0 (+ 0 z^0))) (= pos^post 0)) (= N^0 N^post)) (= br^0 br^post)) (= bs^0 bs^post)) (= c1^0 c1^post)) (= c2^0 c2^post)) (= fr^0 fr^post)) (= fs^0 fs^post)) (= i^0 i^post)) (= lr^0 lr^post)) (= ls^0 ls^post)) (= r_ab^0 r_ab^post)) (= recv^0 recv^post)) (= rrep^0 rrep^post)) (= s_ab^0 s_ab^post)) (= z^0 z^post)))
    (cfg_trans2 pc^0 l6 pc^post l7 (and (and (and (and (and (and (and (and (and (and (and (and (and (and (and (and (and (and (<= (+ 0 pos^0) 1) (<= 1 (+ 0 c2^0))) (= pos^post (+ 1 pos^0))) (= N^0 N^post)) (= br^0 br^post)) (= bs^0 bs^post)) (= c1^0 c1^post)) (= c2^0 c2^post)) (= fr^0 fr^post)) (= fs^0 fs^post)) (= i^0 i^post)) (= lr^0 lr^post)) (= ls^0 ls^post)) (= next^0 next^post)) (= r_ab^0 r_ab^post)) (= recv^0 recv^post)) (= rrep^0 rrep^post)) (= s_ab^0 s_ab^post)) (= z^0 z^post)))
    (cfg_trans2 pc^0 l7 pc^post l2 (and (and (and (and (and (and (and (and (and (and (and (and (and (and (and (and (and (<= 2 (+ 0 c2^0)) (= N^0 N^post)) (= br^0 br^post)) (= bs^0 bs^post)) (= c1^0 c1^post)) (= c2^0 c2^post)) (= fr^0 fr^post)) (= fs^0 fs^post)) (= i^0 i^post)) (= lr^0 lr^post)) (= ls^0 ls^post)) (= next^0 next^post)) (= pos^0 pos^post)) (= r_ab^0 r_ab^post)) (= recv^0 recv^post)) (= rrep^0 rrep^post)) (= s_ab^0 s_ab^post)) (= z^0 z^post)))
    (cfg_trans2 pc^0 l7 pc^post l2 (and (and (and (and (and (and (and (and (and (and (and (and (and (and (and (and (and (<= (+ 1 c2^0) 1) (= N^0 N^post)) (= br^0 br^post)) (= bs^0 bs^post)) (= c1^0 c1^post)) (= c2^0 c2^post)) (= fr^0 fr^post)) (= fs^0 fs^post)) (= i^0 i^post)) (= lr^0 lr^post)) (= ls^0 ls^post)) (= next^0 next^post)) (= pos^0 pos^post)) (= r_ab^0 r_ab^post)) (= recv^0 recv^post)) (= rrep^0 rrep^post)) (= s_ab^0 s_ab^post)) (= z^0 z^post)))
    (cfg_trans2 pc^0 l7 pc^post l5 (and (and (and (and (and (and (and (and (and (and (and (and (and (and (and (and (and (and (<= (+ 0 c2^0) 1) (<= 1 (+ 0 c2^0))) (= N^0 N^post)) (= br^0 br^post)) (= bs^0 bs^post)) (= c1^0 c1^post)) (= c2^0 c2^post)) (= fr^0 fr^post)) (= fs^0 fs^post)) (= i^0 i^post)) (= lr^0 lr^post)) (= ls^0 ls^post)) (= next^0 next^post)) (= pos^0 pos^post)) (= r_ab^0 r_ab^post)) (= recv^0 recv^post)) (= rrep^0 rrep^post)) (= s_ab^0 s_ab^post)) (= z^0 z^post)))
    (cfg_trans2 pc^0 l8 pc^post l6 (and (and (and (and (and (and (and (and (and (and (and (and (and (and (and (and (and (<= 1 (+ 0 pos^0)) (= N^0 N^post)) (= br^0 br^post)) (= bs^0 bs^post)) (= c1^0 c1^post)) (= c2^0 c2^post)) (= fr^0 fr^post)) (= fs^0 fs^post)) (= i^0 i^post)) (= lr^0 lr^post)) (= ls^0 ls^post)) (= next^0 next^post)) (= pos^0 pos^post)) (= r_ab^0 r_ab^post)) (= recv^0 recv^post)) (= rrep^0 rrep^post)) (= s_ab^0 s_ab^post)) (= z^0 z^post)))
    (cfg_trans2 pc^0 l8 pc^post l7 (and (and (and (and (and (and (and (and (and (and (and (and (and (and (and (and (and (and (<= (+ 0 pos^0) 0) (<= 1 (+ 0 c2^0))) (= pos^post (+ 1 pos^0))) (= N^0 N^post)) (= br^0 br^post)) (= bs^0 bs^post)) (= c1^0 c1^post)) (= c2^0 c2^post)) (= fr^0 fr^post)) (= fs^0 fs^post)) (= i^0 i^post)) (= lr^0 lr^post)) (= ls^0 ls^post)) (= next^0 next^post)) (= r_ab^0 r_ab^post)) (= recv^0 recv^post)) (= rrep^0 rrep^post)) (= s_ab^0 s_ab^post)) (= z^0 z^post)))
    (cfg_trans2 pc^0 l9 pc^post l7 (and (and (and (and (and (and (and (and (and (and (and (and (and (and (and (and (and (<= 1 (+ 0 z^0)) (= z^post (+ -1 z^0))) (= N^0 N^post)) (= br^0 br^post)) (= bs^0 bs^post)) (= c1^0 c1^post)) (= c2^0 c2^post)) (= fr^0 fr^post)) (= fs^0 fs^post)) (= i^0 i^post)) (= lr^0 lr^post)) (= ls^0 ls^post)) (= next^0 next^post)) (= pos^0 pos^post)) (= r_ab^0 r_ab^post)) (= recv^0 recv^post)) (= rrep^0 rrep^post)) (= s_ab^0 s_ab^post)))
    (cfg_trans2 pc^0 l9 pc^post l8 (and (and (and (and (and (and (and (and (and (and (and (and (and (and (and (and (and (<= (+ 0 z^0) 0) (= N^0 N^post)) (= br^0 br^post)) (= bs^0 bs^post)) (= c1^0 c1^post)) (= c2^0 c2^post)) (= fr^0 fr^post)) (= fs^0 fs^post)) (= i^0 i^post)) (= lr^0 lr^post)) (= ls^0 ls^post)) (= next^0 next^post)) (= pos^0 pos^post)) (= r_ab^0 r_ab^post)) (= recv^0 recv^post)) (= rrep^0 rrep^post)) (= s_ab^0 s_ab^post)) (= z^0 z^post)))
    (cfg_trans2 pc^0 l10 pc^post l9 (and (and (and (and (and (and (and (and (and (and (and (and (and (and (and (and (and (and (<= 0 (+ 0 c2^0)) (<= (+ 0 c2^0) 1)) (= N^0 N^post)) (= br^0 br^post)) (= bs^0 bs^post)) (= c1^0 c1^post)) (= c2^0 c2^post)) (= fr^0 fr^post)) (= fs^0 fs^post)) (= i^0 i^post)) (= lr^0 lr^post)) (= ls^0 ls^post)) (= next^0 next^post)) (= pos^0 pos^post)) (= r_ab^0 r_ab^post)) (= recv^0 recv^post)) (= rrep^0 rrep^post)) (= s_ab^0 s_ab^post)) (= z^0 z^post)))
    (cfg_trans2 pc^0 l11 pc^post l12 (and (and (and (and (and (and (and (and (and (and (and (and (and (and (and (and (and (<= (+ 1 lr^0) 1) (= N^0 N^post)) (= br^0 br^post)) (= bs^0 bs^post)) (= c1^0 c1^post)) (= c2^0 c2^post)) (= fr^0 fr^post)) (= fs^0 fs^post)) (= i^0 i^post)) (= lr^0 lr^post)) (= ls^0 ls^post)) (= next^0 next^post)) (= pos^0 pos^post)) (= r_ab^0 r_ab^post)) (= recv^0 recv^post)) (= rrep^0 rrep^post)) (= s_ab^0 s_ab^post)) (= z^0 z^post)))
    (cfg_trans2 pc^0 l11 pc^post l12 (and (and (and (and (and (and (and (and (and (and (and (and (and (and (and (and (and (<= 1 (+ 0 lr^0)) (= rrep^post 3)) (= N^0 N^post)) (= br^0 br^post)) (= bs^0 bs^post)) (= c1^0 c1^post)) (= c2^0 c2^post)) (= fr^0 fr^post)) (= fs^0 fs^post)) (= i^0 i^post)) (= lr^0 lr^post)) (= ls^0 ls^post)) (= next^0 next^post)) (= pos^0 pos^post)) (= r_ab^0 r_ab^post)) (= recv^0 recv^post)) (= s_ab^0 s_ab^post)) (= z^0 z^post)))
    (cfg_trans2 pc^0 l13 pc^post l11 (and (and (and (and (and (and (and (and (and (and (and (and (and (and (and (and (and (<= 1 (+ 0 lr^0)) (= N^0 N^post)) (= br^0 br^post)) (= bs^0 bs^post)) (= c1^0 c1^post)) (= c2^0 c2^post)) (= fr^0 fr^post)) (= fs^0 fs^post)) (= i^0 i^post)) (= lr^0 lr^post)) (= ls^0 ls^post)) (= next^0 next^post)) (= pos^0 pos^post)) (= r_ab^0 r_ab^post)) (= recv^0 recv^post)) (= rrep^0 rrep^post)) (= s_ab^0 s_ab^post)) (= z^0 z^post)))
    (cfg_trans2 pc^0 l13 pc^post l12 (and (and (and (and (and (and (and (and (and (and (and (and (and (and (and (and (and (<= (+ 0 lr^0) 0) (= rrep^post 2)) (= N^0 N^post)) (= br^0 br^post)) (= bs^0 bs^post)) (= c1^0 c1^post)) (= c2^0 c2^post)) (= fr^0 fr^post)) (= fs^0 fs^post)) (= i^0 i^post)) (= lr^0 lr^post)) (= ls^0 ls^post)) (= next^0 next^post)) (= pos^0 pos^post)) (= r_ab^0 r_ab^post)) (= recv^0 recv^post)) (= s_ab^0 s_ab^post)) (= z^0 z^post)))
    (cfg_trans2 pc^0 l14 pc^post l11 (and (and (and (and (and (and (and (and (and (and (and (and (and (and (and (and (and (<= 1 (+ 0 fr^0)) (= N^0 N^post)) (= br^0 br^post)) (= bs^0 bs^post)) (= c1^0 c1^post)) (= c2^0 c2^post)) (= fr^0 fr^post)) (= fs^0 fs^post)) (= i^0 i^post)) (= lr^0 lr^post)) (= ls^0 ls^post)) (= next^0 next^post)) (= pos^0 pos^post)) (= r_ab^0 r_ab^post)) (= recv^0 recv^post)) (= rrep^0 rrep^post)) (= s_ab^0 s_ab^post)) (= z^0 z^post)))
    (cfg_trans2 pc^0 l14 pc^post l13 (and (and (and (and (and (and (and (and (and (and (and (and (and (and (and (and (and (<= (+ 0 fr^0) 0) (= N^0 N^post)) (= br^0 br^post)) (= bs^0 bs^post)) (= c1^0 c1^post)) (= c2^0 c2^post)) (= fr^0 fr^post)) (= fs^0 fs^post)) (= i^0 i^post)) (= lr^0 lr^post)) (= ls^0 ls^post)) (= next^0 next^post)) (= pos^0 pos^post)) (= r_ab^0 r_ab^post)) (= recv^0 recv^post)) (= rrep^0 rrep^post)) (= s_ab^0 s_ab^post)) (= z^0 z^post)))
    (cfg_trans2 pc^0 l15 pc^post l14 (and (and (and (and (and (and (and (and (and (and (and (and (and (and (and (and (= N^0 N^post) (= br^0 br^post)) (= bs^0 bs^post)) (= c1^0 c1^post)) (= c2^0 c2^post)) (= fr^0 fr^post)) (= fs^0 fs^post)) (= i^0 i^post)) (= lr^0 lr^post)) (= ls^0 ls^post)) (= next^0 next^post)) (= pos^0 pos^post)) (= r_ab^0 r_ab^post)) (= recv^0 recv^post)) (= rrep^0 rrep^post)) (= s_ab^0 s_ab^post)) (= z^0 z^post)))
    (cfg_trans2 pc^0 l12 pc^post l10 (and (and (and (and (and (and (and (and (and (and (and (and (and (and (and (and (and (<= (+ 1 r_ab^0) 1) (= r_ab^post 1)) (= N^0 N^post)) (= br^0 br^post)) (= bs^0 bs^post)) (= c1^0 c1^post)) (= c2^0 c2^post)) (= fr^0 fr^post)) (= fs^0 fs^post)) (= i^0 i^post)) (= lr^0 lr^post)) (= ls^0 ls^post)) (= next^0 next^post)) (= pos^0 pos^post)) (= recv^0 recv^post)) (= rrep^0 rrep^post)) (= s_ab^0 s_ab^post)) (= z^0 z^post)))
    (cfg_trans2 pc^0 l12 pc^post l10 (and (and (and (and (and (and (and (and (and (and (and (and (and (and (and (and (and (<= 1 (+ 0 r_ab^0)) (= r_ab^post 0)) (= N^0 N^post)) (= br^0 br^post)) (= bs^0 bs^post)) (= c1^0 c1^post)) (= c2^0 c2^post)) (= fr^0 fr^post)) (= fs^0 fs^post)) (= i^0 i^post)) (= lr^0 lr^post)) (= ls^0 ls^post)) (= next^0 next^post)) (= pos^0 pos^post)) (= recv^0 recv^post)) (= rrep^0 rrep^post)) (= s_ab^0 s_ab^post)) (= z^0 z^post)))
    (cfg_trans2 pc^0 l16 pc^post l15 (and (and (and (and (and (and (and (and (and (and (and (and (and (and (and (and (and (<= 1 (+ 0 lr^0)) (= N^0 N^post)) (= br^0 br^post)) (= bs^0 bs^post)) (= c1^0 c1^post)) (= c2^0 c2^post)) (= fr^0 fr^post)) (= fs^0 fs^post)) (= i^0 i^post)) (= lr^0 lr^post)) (= ls^0 ls^post)) (= next^0 next^post)) (= pos^0 pos^post)) (= r_ab^0 r_ab^post)) (= recv^0 recv^post)) (= rrep^0 rrep^post)) (= s_ab^0 s_ab^post)) (= z^0 z^post)))
    (cfg_trans2 pc^0 l16 pc^post l15 (and (and (and (and (and (and (and (and (and (and (and (and (and (and (and (and (and (<= (+ 1 lr^0) 0) (= N^0 N^post)) (= br^0 br^post)) (= bs^0 bs^post)) (= c1^0 c1^post)) (= c2^0 c2^post)) (= fr^0 fr^post)) (= fs^0 fs^post)) (= i^0 i^post)) (= lr^0 lr^post)) (= ls^0 ls^post)) (= next^0 next^post)) (= pos^0 pos^post)) (= r_ab^0 r_ab^post)) (= recv^0 recv^post)) (= rrep^0 rrep^post)) (= s_ab^0 s_ab^post)) (= z^0 z^post)))
    (cfg_trans2 pc^0 l16 pc^post l12 (and (and (and (and (and (and (and (and (and (and (and (and (and (and (and (and (and (and (<= (+ 0 lr^0) 0) (<= 0 (+ 0 lr^0))) (= rrep^post 1)) (= N^0 N^post)) (= br^0 br^post)) (= bs^0 bs^post)) (= c1^0 c1^post)) (= c2^0 c2^post)) (= fr^0 fr^post)) (= fs^0 fs^post)) (= i^0 i^post)) (= lr^0 lr^post)) (= ls^0 ls^post)) (= next^0 next^post)) (= pos^0 pos^post)) (= r_ab^0 r_ab^post)) (= recv^0 recv^post)) (= s_ab^0 s_ab^post)) (= z^0 z^post)))
    (cfg_trans2 pc^0 l17 pc^post l14 (and (and (and (and (and (and (and (and (and (and (and (and (and (and (and (and (and (and (<= (+ 0 fr^0) 0) (<= 0 (+ 0 fr^0))) (= N^0 N^post)) (= br^0 br^post)) (= bs^0 bs^post)) (= c1^0 c1^post)) (= c2^0 c2^post)) (= fr^0 fr^post)) (= fs^0 fs^post)) (= i^0 i^post)) (= lr^0 lr^post)) (= ls^0 ls^post)) (= next^0 next^post)) (= pos^0 pos^post)) (= r_ab^0 r_ab^post)) (= recv^0 recv^post)) (= rrep^0 rrep^post)) (= s_ab^0 s_ab^post)) (= z^0 z^post)))
    (cfg_trans2 pc^0 l17 pc^post l16 (and (and (and (and (and (and (and (and (and (and (and (and (and (and (and (and (and (<= 1 (+ 0 fr^0)) (= N^0 N^post)) (= br^0 br^post)) (= bs^0 bs^post)) (= c1^0 c1^post)) (= c2^0 c2^post)) (= fr^0 fr^post)) (= fs^0 fs^post)) (= i^0 i^post)) (= lr^0 lr^post)) (= ls^0 ls^post)) (= next^0 next^post)) (= pos^0 pos^post)) (= r_ab^0 r_ab^post)) (= recv^0 recv^post)) (= rrep^0 rrep^post)) (= s_ab^0 s_ab^post)) (= z^0 z^post)))
    (cfg_trans2 pc^0 l17 pc^post l16 (and (and (and (and (and (and (and (and (and (and (and (and (and (and (and (and (and (<= (+ 1 fr^0) 0) (= N^0 N^post)) (= br^0 br^post)) (= bs^0 bs^post)) (= c1^0 c1^post)) (= c2^0 c2^post)) (= fr^0 fr^post)) (= fs^0 fs^post)) (= i^0 i^post)) (= lr^0 lr^post)) (= ls^0 ls^post)) (= next^0 next^post)) (= pos^0 pos^post)) (= r_ab^0 r_ab^post)) (= recv^0 recv^post)) (= rrep^0 rrep^post)) (= s_ab^0 s_ab^post)) (= z^0 z^post)))
    (cfg_trans2 pc^0 l18 pc^post l10 (and (and (and (and (and (and (and (and (and (and (and (and (and (and (and (and (and (<= (+ 1 br^0) (+ 0 r_ab^0)) (= N^0 N^post)) (= br^0 br^post)) (= bs^0 bs^post)) (= c1^0 c1^post)) (= c2^0 c2^post)) (= fr^0 fr^post)) (= fs^0 fs^post)) (= i^0 i^post)) (= lr^0 lr^post)) (= ls^0 ls^post)) (= next^0 next^post)) (= pos^0 pos^post)) (= r_ab^0 r_ab^post)) (= recv^0 recv^post)) (= rrep^0 rrep^post)) (= s_ab^0 s_ab^post)) (= z^0 z^post)))
    (cfg_trans2 pc^0 l18 pc^post l10 (and (and (and (and (and (and (and (and (and (and (and (and (and (and (and (and (and (<= (+ 1 r_ab^0) (+ 0 br^0)) (= N^0 N^post)) (= br^0 br^post)) (= bs^0 bs^post)) (= c1^0 c1^post)) (= c2^0 c2^post)) (= fr^0 fr^post)) (= fs^0 fs^post)) (= i^0 i^post)) (= lr^0 lr^post)) (= ls^0 ls^post)) (= next^0 next^post)) (= pos^0 pos^post)) (= r_ab^0 r_ab^post)) (= recv^0 recv^post)) (= rrep^0 rrep^post)) (= s_ab^0 s_ab^post)) (= z^0 z^post)))
    (cfg_trans2 pc^0 l18 pc^post l17 (and (and (and (and (and (and (and (and (and (and (and (and (and (and (and (and (and (and (<= (+ 0 r_ab^0) (+ 0 br^0)) (<= (+ 0 br^0) (+ 0 r_ab^0))) (= N^0 N^post)) (= br^0 br^post)) (= bs^0 bs^post)) (= c1^0 c1^post)) (= c2^0 c2^post)) (= fr^0 fr^post)) (= fs^0 fs^post)) (= i^0 i^post)) (= lr^0 lr^post)) (= ls^0 ls^post)) (= next^0 next^post)) (= pos^0 pos^post)) (= r_ab^0 r_ab^post)) (= recv^0 recv^post)) (= rrep^0 rrep^post)) (= s_ab^0 s_ab^post)) (= z^0 z^post)))
    (cfg_trans2 pc^0 l19 pc^post l18 (and (and (and (and (and (and (and (and (and (and (and (and (and (and (and (and (= recv^post 1) (= N^0 N^post)) (= br^0 br^post)) (= bs^0 bs^post)) (= c1^0 c1^post)) (= c2^0 c2^post)) (= fr^0 fr^post)) (= fs^0 fs^post)) (= i^0 i^post)) (= lr^0 lr^post)) (= ls^0 ls^post)) (= next^0 next^post)) (= pos^0 pos^post)) (= r_ab^0 r_ab^post)) (= rrep^0 rrep^post)) (= s_ab^0 s_ab^post)) (= z^0 z^post)))
    (cfg_trans2 pc^0 l20 pc^post l19 (and (and (and (and (and (and (and (and (and (and (and (and (and (and (and (and (and (<= 1 (+ 0 recv^0)) (= N^0 N^post)) (= br^0 br^post)) (= bs^0 bs^post)) (= c1^0 c1^post)) (= c2^0 c2^post)) (= fr^0 fr^post)) (= fs^0 fs^post)) (= i^0 i^post)) (= lr^0 lr^post)) (= ls^0 ls^post)) (= next^0 next^post)) (= pos^0 pos^post)) (= r_ab^0 r_ab^post)) (= recv^0 recv^post)) (= rrep^0 rrep^post)) (= s_ab^0 s_ab^post)) (= z^0 z^post)))
    (cfg_trans2 pc^0 l20 pc^post l19 (and (and (and (and (and (and (and (and (and (and (and (and (and (and (and (and (and (<= (+ 0 recv^0) 0) (= r_ab^post (+ 0 br^0))) (= N^0 N^post)) (= br^0 br^post)) (= bs^0 bs^post)) (= c1^0 c1^post)) (= c2^0 c2^post)) (= fr^0 fr^post)) (= fs^0 fs^post)) (= i^0 i^post)) (= lr^0 lr^post)) (= ls^0 ls^post)) (= next^0 next^post)) (= pos^0 pos^post)) (= recv^0 recv^post)) (= rrep^0 rrep^post)) (= s_ab^0 s_ab^post)) (= z^0 z^post)))
    (cfg_trans2 pc^0 l21 pc^post l22 (and (and (and (and (and (and (and (and (and (and (and (and (and (and (and (and (and (and (<= 2 (+ 0 pos^0)) (= next^post (+ 1 next^0))) (<= 0 (+ 0 z^0))) (= pos^post 0)) (= N^0 N^post)) (= br^0 br^post)) (= bs^0 bs^post)) (= c1^0 c1^post)) (= c2^0 c2^post)) (= fr^0 fr^post)) (= fs^0 fs^post)) (= i^0 i^post)) (= lr^0 lr^post)) (= ls^0 ls^post)) (= r_ab^0 r_ab^post)) (= recv^0 recv^post)) (= rrep^0 rrep^post)) (= s_ab^0 s_ab^post)) (= z^0 z^post)))
    (cfg_trans2 pc^0 l21 pc^post l22 (and (and (and (and (and (and (and (and (and (and (and (and (and (and (and (and (and (and (<= (+ 0 pos^0) 1) (<= 1 (+ 0 c1^0))) (= pos^post (+ 1 pos^0))) (= N^0 N^post)) (= br^0 br^post)) (= bs^0 bs^post)) (= c1^0 c1^post)) (= c2^0 c2^post)) (= fr^0 fr^post)) (= fs^0 fs^post)) (= i^0 i^post)) (= lr^0 lr^post)) (= ls^0 ls^post)) (= next^0 next^post)) (= r_ab^0 r_ab^post)) (= recv^0 recv^post)) (= rrep^0 rrep^post)) (= s_ab^0 s_ab^post)) (= z^0 z^post)))
    (cfg_trans2 pc^0 l22 pc^post l2 (and (and (and (and (and (and (and (and (and (and (and (and (and (and (and (and (and (<= (+ 1 c1^0) 1) (= N^0 N^post)) (= br^0 br^post)) (= bs^0 bs^post)) (= c1^0 c1^post)) (= c2^0 c2^post)) (= fr^0 fr^post)) (= fs^0 fs^post)) (= i^0 i^post)) (= lr^0 lr^post)) (= ls^0 ls^post)) (= next^0 next^post)) (= pos^0 pos^post)) (= r_ab^0 r_ab^post)) (= recv^0 recv^post)) (= rrep^0 rrep^post)) (= s_ab^0 s_ab^post)) (= z^0 z^post)))
    (cfg_trans2 pc^0 l22 pc^post l20 (and (and (and (and (and (and (and (and (and (and (and (and (and (and (and (and (and (<= 1 (+ 0 c1^0)) (= fr^post (+ 0 fs^0))) (= lr^post (+ 0 ls^0))) (= br^post (+ 0 bs^0))) (= N^0 N^post)) (= bs^0 bs^post)) (= c1^0 c1^post)) (= c2^0 c2^post)) (= fs^0 fs^post)) (= i^0 i^post)) (= ls^0 ls^post)) (= next^0 next^post)) (= pos^0 pos^post)) (= r_ab^0 r_ab^post)) (= recv^0 recv^post)) (= rrep^0 rrep^post)) (= s_ab^0 s_ab^post)) (= z^0 z^post)))
    (cfg_trans2 pc^0 l23 pc^post l21 (and (and (and (and (and (and (and (and (and (and (and (and (and (and (and (and (and (<= 1 (+ 0 pos^0)) (= N^0 N^post)) (= br^0 br^post)) (= bs^0 bs^post)) (= c1^0 c1^post)) (= c2^0 c2^post)) (= fr^0 fr^post)) (= fs^0 fs^post)) (= i^0 i^post)) (= lr^0 lr^post)) (= ls^0 ls^post)) (= next^0 next^post)) (= pos^0 pos^post)) (= r_ab^0 r_ab^post)) (= recv^0 recv^post)) (= rrep^0 rrep^post)) (= s_ab^0 s_ab^post)) (= z^0 z^post)))
    (cfg_trans2 pc^0 l23 pc^post l22 (and (and (and (and (and (and (and (and (and (and (and (and (and (and (and (and (and (and (<= (+ 0 pos^0) 0) (<= 1 (+ 0 c1^0))) (= pos^post (+ 1 pos^0))) (= N^0 N^post)) (= br^0 br^post)) (= bs^0 bs^post)) (= c1^0 c1^post)) (= c2^0 c2^post)) (= fr^0 fr^post)) (= fs^0 fs^post)) (= i^0 i^post)) (= lr^0 lr^post)) (= ls^0 ls^post)) (= next^0 next^post)) (= r_ab^0 r_ab^post)) (= recv^0 recv^post)) (= rrep^0 rrep^post)) (= s_ab^0 s_ab^post)) (= z^0 z^post)))
    (cfg_trans2 pc^0 l24 pc^post l22 (and (and (and (and (and (and (and (and (and (and (and (and (and (and (and (and (and (<= 1 (+ 0 z^0)) (= z^post (+ -1 z^0))) (= N^0 N^post)) (= br^0 br^post)) (= bs^0 bs^post)) (= c1^0 c1^post)) (= c2^0 c2^post)) (= fr^0 fr^post)) (= fs^0 fs^post)) (= i^0 i^post)) (= lr^0 lr^post)) (= ls^0 ls^post)) (= next^0 next^post)) (= pos^0 pos^post)) (= r_ab^0 r_ab^post)) (= recv^0 recv^post)) (= rrep^0 rrep^post)) (= s_ab^0 s_ab^post)))
    (cfg_trans2 pc^0 l24 pc^post l23 (and (and (and (and (and (and (and (and (and (and (and (and (and (and (and (and (and (<= (+ 0 z^0) 0) (= N^0 N^post)) (= br^0 br^post)) (= bs^0 bs^post)) (= c1^0 c1^post)) (= c2^0 c2^post)) (= fr^0 fr^post)) (= fs^0 fs^post)) (= i^0 i^post)) (= lr^0 lr^post)) (= ls^0 ls^post)) (= next^0 next^post)) (= pos^0 pos^post)) (= r_ab^0 r_ab^post)) (= recv^0 recv^post)) (= rrep^0 rrep^post)) (= s_ab^0 s_ab^post)) (= z^0 z^post)))
    (cfg_trans2 pc^0 l25 pc^post l0 (and (and (and (and (and (and (and (and (and (and (and (and (and (and (and (and (and (and (<= 0 (+ 0 z^0)) (= pos^post 0)) (= next^post 1)) (<= 1 (+ 0 N^0))) (= i^post 0)) (= N^0 N^post)) (= br^0 br^post)) (= bs^0 bs^post)) (= c1^0 c1^post)) (= c2^0 c2^post)) (= fr^0 fr^post)) (= fs^0 fs^post)) (= lr^0 lr^post)) (= ls^0 ls^post)) (= r_ab^0 r_ab^post)) (= recv^0 recv^post)) (= rrep^0 rrep^post)) (= s_ab^0 s_ab^post)) (= z^0 z^post)))
    (cfg_trans2 pc^0 l3 pc^post l24 (and (and (and (and (and (and (and (and (and (and (and (and (and (and (and (and (and (and (<= 0 (+ 0 c1^0)) (<= (+ 0 c1^0) 1)) (= N^0 N^post)) (= br^0 br^post)) (= bs^0 bs^post)) (= c1^0 c1^post)) (= c2^0 c2^post)) (= fr^0 fr^post)) (= fs^0 fs^post)) (= i^0 i^post)) (= lr^0 lr^post)) (= ls^0 ls^post)) (= next^0 next^post)) (= pos^0 pos^post)) (= r_ab^0 r_ab^post)) (= recv^0 recv^post)) (= rrep^0 rrep^post)) (= s_ab^0 s_ab^post)) (= z^0 z^post)))
    (cfg_trans2 pc^0 l26 pc^post l3 (and (and (and (and (and (and (and (and (and (and (and (and (and (and (and (and (= bs^post (+ 0 s_ab^0)) (= N^0 N^post)) (= br^0 br^post)) (= c1^0 c1^post)) (= c2^0 c2^post)) (= fr^0 fr^post)) (= fs^0 fs^post)) (= i^0 i^post)) (= lr^0 lr^post)) (= ls^0 ls^post)) (= next^0 next^post)) (= pos^0 pos^post)) (= r_ab^0 r_ab^post)) (= recv^0 recv^post)) (= rrep^0 rrep^post)) (= s_ab^0 s_ab^post)) (= z^0 z^post)))
    (cfg_trans2 pc^0 l27 pc^post l26 (and (and (and (and (and (and (and (and (and (and (and (and (and (and (and (and (and (<= (+ 1 i^0) (+ -1 N^0)) (= ls^post 0)) (= N^0 N^post)) (= br^0 br^post)) (= bs^0 bs^post)) (= c1^0 c1^post)) (= c2^0 c2^post)) (= fr^0 fr^post)) (= fs^0 fs^post)) (= i^0 i^post)) (= lr^0 lr^post)) (= next^0 next^post)) (= pos^0 pos^post)) (= r_ab^0 r_ab^post)) (= recv^0 recv^post)) (= rrep^0 rrep^post)) (= s_ab^0 s_ab^post)) (= z^0 z^post)))
    (cfg_trans2 pc^0 l27 pc^post l26 (and (and (and (and (and (and (and (and (and (and (and (and (and (and (and (and (and (<= (+ -1 N^0) (+ 0 i^0)) (= ls^post 1)) (= N^0 N^post)) (= br^0 br^post)) (= bs^0 bs^post)) (= c1^0 c1^post)) (= c2^0 c2^post)) (= fr^0 fr^post)) (= fs^0 fs^post)) (= i^0 i^post)) (= lr^0 lr^post)) (= next^0 next^post)) (= pos^0 pos^post)) (= r_ab^0 r_ab^post)) (= recv^0 recv^post)) (= rrep^0 rrep^post)) (= s_ab^0 s_ab^post)) (= z^0 z^post)))
    (cfg_trans2 pc^0 l28 pc^post l27 (and (and (and (and (and (and (and (and (and (and (and (and (and (and (and (and (and (<= 1 (+ 0 i^0)) (= fs^post 0)) (= N^0 N^post)) (= br^0 br^post)) (= bs^0 bs^post)) (= c1^0 c1^post)) (= c2^0 c2^post)) (= fr^0 fr^post)) (= i^0 i^post)) (= lr^0 lr^post)) (= ls^0 ls^post)) (= next^0 next^post)) (= pos^0 pos^post)) (= r_ab^0 r_ab^post)) (= recv^0 recv^post)) (= rrep^0 rrep^post)) (= s_ab^0 s_ab^post)) (= z^0 z^post)))
    (cfg_trans2 pc^0 l28 pc^post l27 (and (and (and (and (and (and (and (and (and (and (and (and (and (and (and (and (and (<= (+ 0 i^0) 0) (= fs^post 1)) (= N^0 N^post)) (= br^0 br^post)) (= bs^0 bs^post)) (= c1^0 c1^post)) (= c2^0 c2^post)) (= fr^0 fr^post)) (= i^0 i^post)) (= lr^0 lr^post)) (= ls^0 ls^post)) (= next^0 next^post)) (= pos^0 pos^post)) (= r_ab^0 r_ab^post)) (= recv^0 recv^post)) (= rrep^0 rrep^post)) (= s_ab^0 s_ab^post)) (= z^0 z^post)))
    (cfg_trans2 pc^0 l1 pc^post l29 (and (and (and (and (and (and (and (and (and (and (and (and (and (and (and (and (and (<= (+ 0 N^0) (+ 0 i^0)) (= N^0 N^post)) (= br^0 br^post)) (= bs^0 bs^post)) (= c1^0 c1^post)) (= c2^0 c2^post)) (= fr^0 fr^post)) (= fs^0 fs^post)) (= i^0 i^post)) (= lr^0 lr^post)) (= ls^0 ls^post)) (= next^0 next^post)) (= pos^0 pos^post)) (= r_ab^0 r_ab^post)) (= recv^0 recv^post)) (= rrep^0 rrep^post)) (= s_ab^0 s_ab^post)) (= z^0 z^post)))
    (cfg_trans2 pc^0 l1 pc^post l28 (and (and (and (and (and (and (and (and (and (and (and (and (and (and (and (and (and (<= (+ 1 i^0) (+ 0 N^0)) (= N^0 N^post)) (= br^0 br^post)) (= bs^0 bs^post)) (= c1^0 c1^post)) (= c2^0 c2^post)) (= fr^0 fr^post)) (= fs^0 fs^post)) (= i^0 i^post)) (= lr^0 lr^post)) (= ls^0 ls^post)) (= next^0 next^post)) (= pos^0 pos^post)) (= r_ab^0 r_ab^post)) (= recv^0 recv^post)) (= rrep^0 rrep^post)) (= s_ab^0 s_ab^post)) (= z^0 z^post)))
    (cfg_trans2 pc^0 l30 pc^post l25 (and (and (and (and (and (and (and (and (and (and (and (and (and (and (and (and (= N^0 N^post) (= br^0 br^post)) (= bs^0 bs^post)) (= c1^0 c1^post)) (= c2^0 c2^post)) (= fr^0 fr^post)) (= fs^0 fs^post)) (= i^0 i^post)) (= lr^0 lr^post)) (= ls^0 ls^post)) (= next^0 next^post)) (= pos^0 pos^post)) (= r_ab^0 r_ab^post)) (= recv^0 recv^post)) (= rrep^0 rrep^post)) (= s_ab^0 s_ab^post)) (= z^0 z^post)))
  )
)
